; PUSH 0x0a PUSH 0x3b92 PUSH 0xffff AND MUL => PUSH 0x0253b4
(set-option :produce-proofs true)
; 
(set-info :status unknown)
(declare-fun storage_t (Int (_ BitVec 256)) (_ BitVec 256))
(declare-fun storage_s (Int (_ BitVec 256)) (_ BitVec 256))
(declare-fun exc_halt_t (Int) Bool)
(declare-fun exc_halt_s (Int) Bool)
(declare-fun sc_t (Int) (_ BitVec 6))
(declare-fun stack_t (Int (_ BitVec 6)) (_ BitVec 256))
(declare-fun stack_s (Int (_ BitVec 6)) (_ BitVec 256))
(declare-fun sc_s (Int) (_ BitVec 6))
(declare-fun used_gas_t (Int) Int)
(declare-fun used_gas_s (Int) Int)
(assert
 (let (($x7547 (forall ((w (_ BitVec 256)) )(let ((?x3643 (storage_t 1 w)))
 (let ((?x1591 (storage_s 5 w)))
 (= ?x1591 ?x3643))))
 ))
 (let (($x3508 (exc_halt_t 1)))
 (let (($x11317 (exc_halt_s 5)))
 (let (($x10250 (= $x11317 $x3508)))
 (let (($x4512 (forall ((n (_ BitVec 6)) )(let ((?x127 (stack_t 1 n)))
 (let ((?x6246 (stack_s 5 n)))
 (let (($x4258 (= ?x6246 ?x127)))
 (or $x4258 (bvsle (sc_t 1) n))))))
 ))
 (let ((?x8347 (sc_t 1)))
 (let ((?x4319 (sc_s 5)))
 (let (($x4882 (= ?x4319 ?x8347)))
 (let ((?x2561 (used_gas_t 0)))
 (let ((?x928 (used_gas_s 0)))
 (let (($x3506 (= ?x928 ?x2561)))
 (let (($x10152 (forall ((w (_ BitVec 256)) )(let ((?x2434 (storage_t 0 w)))
 (let ((?x10675 (storage_s 0 w)))
 (= ?x10675 ?x2434))))
 ))
 (let (($x56 (exc_halt_t 0)))
 (let (($x57 (exc_halt_s 0)))
 (let (($x58 (= $x57 $x56)))
 (let (($x2306 (forall ((n (_ BitVec 6)) )(let ((?x63 (sc_t 0)))
 (let (($x4866 (bvsle ?x63 n)))
 (let ((?x197 (stack_t 0 n)))
 (let ((?x293 (stack_s 0 n)))
 (let (($x3081 (= ?x293 ?x197)))
 (or $x3081 $x4866)))))))
 ))
 (let ((?x63 (sc_t 0)))
 (let ((?x72 (sc_s 0)))
 (let (($x73 (= ?x72 ?x63)))
 (let (($x9711 (= $x3508 (or $x56 (not (= ((_ extract 6 6) (bvadd (_ bv1 7) (concat (_ bv0 1) ?x63))) (_ bv0 1)))))))
 (let (($x3063 (forall ((w (_ BitVec 256)) )(let ((?x2434 (storage_t 0 w)))
 (let ((?x3643 (storage_t 1 w)))
 (= ?x3643 ?x2434))))
 ))
 (let (($x390 (forall ((n (_ BitVec 6)) )(let ((?x63 (sc_t 0)))
 (let (($x4866 (bvsle ?x63 n)))
 (or (= (stack_t 1 n) (stack_t 0 n)) $x4866))))
 ))
 (let (($x2101 (= $x11317 (or (exc_halt_s 4) (not (bvsle (_ bv0 6) (bvadd (_ bv62 6) (sc_s 4))))))))
 (let (($x3562 (forall ((w (_ BitVec 256)) )(let ((?x1553 (storage_s 4 w)))
 (let ((?x1591 (storage_s 5 w)))
 (= ?x1591 ?x1553))))
 ))
 (let (($x9680 (forall ((n (_ BitVec 6)) )(or (= (stack_s 5 n) (stack_s 4 n)) (bvsle (bvadd (_ bv62 6) (sc_s 4)) n)))
 ))
 (let ((?x4305 (sc_s 4)))
 (let ((?x9783 (bvadd (_ bv63 6) ?x4305)))
 (let ((?x3392 (stack_s 4 ?x9783)))
 (let (($x6196 (= (stack_s 5 (bvadd (_ bv63 6) ?x4319)) (bvmul (stack_s 4 (bvadd (_ bv62 6) ?x4305)) ?x3392))))
 (let (($x7172 (exc_halt_s 4)))
 (let (($x8085 (= $x7172 (or (exc_halt_s 3) (not (bvsle (_ bv0 6) (bvadd (_ bv62 6) (sc_s 3))))))))
 (let (($x7327 (forall ((w (_ BitVec 256)) )(let ((?x9567 (storage_s 3 w)))
 (let ((?x1553 (storage_s 4 w)))
 (= ?x1553 ?x9567))))
 ))
 (let (($x6894 (forall ((n (_ BitVec 6)) )(let ((?x275 (sc_s 3)))
 (let ((?x4190 (bvadd (_ bv62 6) ?x275)))
 (let (($x4079 (bvsle ?x4190 n)))
 (or $x4079 (= (stack_s 4 n) (stack_s 3 n)))))))
 ))
 (let ((?x9447 (bvor (bvnot (stack_s 3 (bvadd (_ bv63 6) (sc_s 3)))) (bvnot (stack_s 3 (bvadd (_ bv62 6) (sc_s 3)))))))
 (let (($x247 (exc_halt_s 2)))
 (let (($x9200 (or $x247 (not (= ((_ extract 6 6) (bvadd (_ bv1 7) (concat (_ bv0 1) (sc_s 2)))) (_ bv0 1))))))
 (let (($x292 (exc_halt_s 3)))
 (let (($x1278 (forall ((w (_ BitVec 256)) )(let ((?x3104 (storage_s 2 w)))
 (let ((?x9567 (storage_s 3 w)))
 (= ?x9567 ?x3104))))
 ))
 (let (($x1305 (forall ((n (_ BitVec 6)) )(or (= (stack_s 3 n) (stack_s 2 n)) (bvsle (sc_s 2) n)))
 ))
 (let (($x189 (exc_halt_s 1)))
 (let (($x4474 (or $x189 (not (= ((_ extract 6 6) (bvadd (_ bv1 7) (concat (_ bv0 1) (sc_s 1)))) (_ bv0 1))))))
 (let (($x2424 (forall ((w (_ BitVec 256)) )(let ((?x7490 (storage_s 1 w)))
 (let ((?x3104 (storage_s 2 w)))
 (= ?x3104 ?x7490))))
 ))
 (let (($x9474 (forall ((n (_ BitVec 6)) )(or (= (stack_s 2 n) (stack_s 1 n)) (bvsle (sc_s 1) n)))
 ))
 (let (($x9787 (= $x189 (or $x57 (not (= ((_ extract 6 6) (bvadd (_ bv1 7) (concat (_ bv0 1) ?x72))) (_ bv0 1)))))))
 (let (($x8864 (forall ((w (_ BitVec 256)) )(let ((?x10675 (storage_s 0 w)))
 (let ((?x7490 (storage_s 1 w)))
 (= ?x7490 ?x10675))))
 ))
 (let (($x9271 (forall ((n (_ BitVec 6)) )(or (bvsle (sc_s 0) n) (= (stack_s 1 n) (stack_s 0 n))))
 ))
 (let (($x10084 (forall ((w (_ BitVec 256)) )(let ((?x10675 (storage_s 0 w)))
 (= ?x10675 (_ bv0 256))))
 ))
 (let (($x9328 (= ?x928 0)))
 (let (($x1248 (not $x57)))
 (let (($x4761 (= ?x72 (_ bv0 6))))
 (and $x4761 $x1248 $x9328 $x10084 (= (stack_s 1 ?x72) (_ bv10 256)) (= (used_gas_s 1) (+ 3 ?x928)) (= (sc_s 1) (bvadd (_ bv1 6) ?x72)) $x9271 $x8864 $x9787 (= (stack_s 2 (sc_s 1)) (_ bv15250 256)) (= (used_gas_s 2) (+ 3 (used_gas_s 1))) (= (sc_s 2) (bvadd (_ bv1 6) (sc_s 1))) $x9474 $x2424 (= $x247 $x4474) (= (stack_s 3 (sc_s 2)) (_ bv65535 256)) (= (used_gas_s 3) (+ 3 (used_gas_s 2))) (= (sc_s 3) (bvadd (_ bv1 6) (sc_s 2))) $x1305 $x1278 (= $x292 $x9200) (= ?x3392 (bvnot ?x9447)) (= (used_gas_s 4) (+ 3 (used_gas_s 3))) (= ?x4305 (bvadd (_ bv63 6) (sc_s 3))) $x6894 $x7327 $x8085 $x6196 (= (used_gas_s 5) (+ 5 (used_gas_s 4))) (= ?x4319 ?x9783) $x9680 $x3562 $x2101 (= (stack_t 1 ?x63) (_ bv152500 256)) (= (used_gas_t 1) (+ 3 ?x2561)) (= ?x8347 (bvadd (_ bv1 6) ?x63)) $x390 $x3063 $x9711 $x73 $x2306 $x58 $x10152 $x3506 (not (and $x4882 $x4512 $x10250 $x7547))))))))))))))))))))))))))))))))))))))))))))))))))))))
(check-sat)
(get-proof)
